108 173 174 175 172 170 171 169 180 181 179 178 177 176 540 538 539 537 536 484 485 483 482 481 480 479 478 477 476 475 567 566 565 564 563 562 561 560 549 548 551 550 559 558 557 556 554 553 552 101 102 100 99 98 97 94 96 95 118 119 73 74 75 77 76 64 63 61 60 59 58 57 82 83 56 55 53 54 52 50 51 84 85 86 90 87 81 80 79 62 78 88 89 93 92 91 555 45 46 49 48 47 44 43 42 39 41 40 38 37 36 35 34 33 32 30 31 29 28 27 26 25 24 21 22 23 12 13 14 15 16 11 10 9 8 7 6 5 4 3 2 1 0 573 572 17 18 19 20 568 569 570 474 473 472 471 470 469 468 571 467 466 465 464 496 497 463 462 461 460 459 458 457 456 455 454 439 440 441 450 449 448 447 446 442 443 444 445 431 433 434 435 436 438 437 432 430 429 428 427 426 425 424 423 422 421 420 419 417 418 410 411 412 356 355 354 353 352 413 414 416 415 351 350 349 348 347 345 346 364 363 362 361 360 359 358 357 401 402 403 400 404 405 406 407 408 409 384 383 382 386 385 387 388 389 390 391 393 392 381 380 379 378 377 376 375 374 315 314 316 313 312 310 309 308 505 504 503 502 311 451 453 452 499 500 501 498 519 518 495 494 520 517 516 515 514 522 521 523 526 525 524 493 492 491 490 486 487 535 534 488 533 532 489 531 530 529 528 527 512 513 511 510 509 237 301 302 508 507 506 307 303 304 306 305 318 317 319 320 321 297 324 328 329 366 327 326 325 323 322 373 372 371 396 395 394 397 399 398 370 369 368 367 365 342 343 344 341 340 330 331 332 333 339 338 337 336 335 334 283 284 285 286 287 280 281 282 279 278 277 276 288 289 290 275 274 273 292 291 295 296 294 293 270 268 269 272 271 267 298 266 265 264 263 262 261 260 259 258 299 300 257 256 255 253 254 252 251 250 249 248 241 242 243 244 245 247 246 238 239 240 236 235 234 232 233 231 230 229 228 225 226 191 192 190 189 227 186 188 187 182 183 185 184 197 196 195 194 193 219 218 220 221 222 224 223 217 216 215 214 213 212 211 210 209 205 206 207 208 203 204 202 198 199 200 201 165 164 166 167 163 168 162 161 160 159 156 155 154 153 146 147 148 152 149 150 151 141 142 143 144 145 157 158 133 134 135 136 140 139 138 137 129 130 132 131 113 112 114 115 116 128 127 126 125 124 69 70 68 67 66 65 72 71 123 122 120 121 117 106 105 104 103 547 546 545 544 543 541 542 107 110 111 109